p cnf 28 37
1 2 3 4 5 6 7 8 9 10 0
-13 11 14 0
-12 11 14 0
-12 -13 14 0
-14 0
-16 13 17 0
-15 13 17 0
-15 -16 17 0
-17 0
-10 16 18 0
-9 16 18 0
-9 -10 18 0
-18 0
-8 15 20 0
-19 15 20 0
-19 -8 20 0
-20 0
-7 19 21 0
-6 19 21 0
-6 -7 21 0
-21 0
-23 12 24 0
-22 12 24 0
-22 -23 24 0
-24 0
-5 23 25 0
-4 23 25 0
-4 -5 25 0
-25 0
-3 22 27 0
-26 22 27 0
-26 -3 27 0
-27 0
-2 26 28 0
-1 26 28 0
-1 -2 28 0
-28 0
